9
0 25 18 77 44 67 31 96 97 
54 0 65 53 1 7 63 39 2 
51 31 0 34 67 38 85 45 18 
49 2 84 0 60 39 51 100 81 
37 40 43 3 0 64 46 53 58 
79 25 79 93 81 0 82 69 35 
39 12 3 27 38 51 0 11 40 
32 38 78 69 32 37 76 0 20 
91 59 1 30 65 74 5 27 0 
